# Cost: 871

# Tail Head Net
 18  88 1
 88 158 1
158 228 1
228 298 1
298 368 1
368 438 1
438 508 1
508 578 1
578 648 1
648 718 1
718 788 1
788 858 1
858 928 1
928 998 1
981 1051 1
982 981 1
983 982 1
984 983 1
985 984 1
986 985 1
987 986 1
988 987 1
989 988 1
990 989 1
991 990 1
992 991 1
993 992 1
994 993 1
995 994 1
996 995 1
997 996 1
998 997 1
998 999 1
999 1000 1
1000 1001 1
1001 1002 1
1002 1003 1
1003 1004 1
1004 1005 1
1005 1006 1
1006 1007 1
1007 1008 1
1008 1009 1
1009 1010 1
1010 1011 1
1011 1012 1
1012 1013 1
1013 1014 1
1014 1015 1
1015 1016 1
1016 1017 1
1017 1018 1
1018 1019 1
1019 1020 1
1020 1021 1
1021 1022 1
1022 1023 1
1023 1024 1
1024 1025 1
1025 1026 1
1026 1027 1
1027 1028 1
1028 1029 1
1029 1030 1
1030 1031 1
1031 1032 1
1032 1033 1
1033 1034 1
1034 1035 1
1035 1036 1
1036 1037 1
1037 1038 1
1038 1039 1
1039 1040 1
1040 1041 1
1041 1042 1
1042 1043 1
1043 1044 1
1044 1045 1
1045 1046 1
1046 1047 1
1047 1048 1
1048 1049 1
1049 1050 1
1050 1120 1
1051 1121 1
1120 1190 1
1121 1191 1
1190 1260 1
1191 1261 1
1260 1330 1
1261 1331 1
1330 1400 1
1331 1401 1
1400 1470 1
1401 1471 1
1470 1540 1
1471 1541 1
1540 1610 1
1541 1611 1
1610 1680 1
1611 1681 1
1680 1750 1
1750 1820 1
1820 1890 1
1890 1960 1
1960 2030 1
2030 2100 1
118  48 2
188 118 2
258 188 2
328 258 2
329 328 2
330 329 2
331 330 2
332 331 2
333 332 2
334 333 2
335 334 2
336 335 2
337 336 2
338 337 2
339 338 2
340 339 2
341 340 2
342 341 2
343 342 2
344 343 2
345 344 2
346 345 2
347 346 2
348 347 2
349 348 2
350 349 2
5250 350 2
5320 5250 2
5390 5320 2
5460 5390 2
5530 5460 2
5600 5530 2
5670 5600 2
5740 5670 2
5810 5740 2
5880 5810 2
5950 5880 2
6020 5950 2
6090 6020 2
6160 6090 2
6230 6160 2
6300 6230 2
6370 6300 2
6440 6370 2
6510 6440 2
6580 6510 2
6650 6580 2
6720 6650 2
6790 6720 2
6860 6790 2
6930 6860 2
2170 7070 2
7000 6930 2
2240 2170 2
7070 7000 2
2310 2240 2
2380 2310 2
2450 2380 2
2520 2450 2
2590 2520 2
2660 2590 2
2730 2660 2
2800 2730 2
2870 2800 2
2940 2870 2
3010 2940 2
3080 3010 2
3150 3080 2
3150 3220 2
3220 3290 2
3290 3360 2
3360 3430 2
3430 3500 2
3500 3570 2
3570 3640 2
3640 3710 2
3710 3780 2
3780 3850 2
3850 3920 2
3920 3990 2
3990 4060 2
3361 3291 3
3431 3361 3
3501 3431 3
3571 3501 3
3641 3571 3
3711 3641 3
3781 3711 3
3851 3781 3
3921 3851 3
3991 3921 3
4061 3991 3
4131 4061 3
4201 4131 3
4271 4201 3
4341 4271 3
4411 4341 3
4481 4411 3
4551 4481 3
4551 4552 3
4552 4553 3
4553 4554 3
4554 4555 3
4555 4556 3
4556 4557 3
4557 4558 3
4558 4559 3
4559 4560 3
4560 4561 3
4561 4562 3
4562 4563 3
4563 4564 3
4564 4634 3
4634 4635 3
4635 4705 3
4705 4706 3
4706 4776 3
4776 4777 3
4777 4847 3
4847 4848 3
4848 4849 3
4849 4850 3
4850 4851 3
4851 4852 3
 44 114 4
114 184 4
184 254 4
254 255 4
255 325 4
325 395 4
395 465 4
465 466 4
466 467 4
467 468 4
468 538 4
538 608 4
608 678 4
678 748 4
748 818 4
818 888 4
888 958 4
958 5858 4
5858 5928 4
5928 5998 4
5998 6068 4
6068 6138 4
6138 6208 4
6208 6278 4
6278 6348 4
6348 6418 4
6418 6488 4
6488 6558 4
6558 6628 4
6628 6698 4
6698 6768 4
6768 6838 4
6838 6908 4
6908 6978 4
6978 7048 4
7048 7118 4
7118 7188 4
7188 7258 4
7258 7328 4
7328 7398 4
7398 7468 4
7468 7538 4
7538 7608 4
7608 7678 4
7678 7748 4
7748 7818 4
7818 7888 4
7888 7958 4
7958 7959 4
7959 8029 4
8029 8099 4
8099 8169 4
8169 8239 4
3340 3410 4
8239 8240 4
3410 3480 4
8240 3340 4
3480 3550 4
3550 3620 4
3620 3690 4
3690 3760 4
3760 3830 4
3830 3900 4
3900 3970 4
3970 4040 4
4040 4110 4
4110 4180 4
4180 4250 4
4250 4251 4
4250 4320 4
4251 4252 4
4252 4253 4
4253 4254 4
4254 4255 4
4255 4256 4
4256 4257 4
4257 4258 4
4258 4259 4
4259 4260 4
4260 4261 4
4261 4262 4
4262 4263 4
4263 4264 4
4264 4265 4
4265 4266 4
4266 4267 4
4267 4268 4
4268 4269 4
4269 4270 4
4320 4390 4
4390 4460 4
4460 4530 4
4530 4600 4
4600 4670 4
4670 4740 4
4740 4810 4
4810 4880 4
  2 4902 5
4901 4971 5
4902 4901 5
4902 4903 5
4903 4904 5
4904 4905 5
4905 4906 5
4906 4907 5
4907 4908 5
4908 4909 5
4909 4910 5
4910 4911 5
4911 4912 5
4912 4913 5
4913 4914 5
4914 4915 5
4915 4916 5
4916 4917 5
4917 4918 5
4918 4919 5
4919 4920 5
4920 4921 5
4921 4922 5
4922 4923 5
4923 4924 5
4924 4925 5
4925 4926 5
4926 4927 5
4927 4928 5
4928 4929 5
4929 4930 5
4930 4931 5
4931 4932 5
4932 4933 5
4933 4934 5
4934 4935 5
4935 4936 5
4936 4937 5
4937 4938 5
4938 4939 5
4939 4940 5
4940 4941 5
4941 4942 5
4942 4943 5
4943 4944 5
4944 4945 5
4945 4946 5
4946 4947 5
4947 4948 5
 49  50 5
4948 4949 5
 50  51 5
4949  49 5
 51  52 5
4971 5041 5
5041 5111 5
5111 5181 5
5181 5251 5
5251 5321 5
5321 5391 5
5391 5461 5
5461 5531 5
5531 5601 5
5601 5671 5
5671 5741 5
5741 5811 5
5811 5881 5
5881 5951 5
5951 6021 5
6021 6091 5
6091 6161 5
6161 6231 5
6231 6301 5
6301 6371 5
6371 6441 5
6441 6511 5
6511 6581 5
1751 1821 5
6581 6651 5
1821 1891 5
6651 1751 5
  4  74 6
 74 4974 6
123 124 6
 55  56 6
124 125 6
 56  57 6
125  55 6
 57  58 6
 58  59 6
 59  60 6
 60  61 6
 61  62 6
 62  63 6
 63  64 6
 64  65 6
 65  66 6
 66  67 6
 67  68 6
4974 4975 6
4975 4976 6
4976 4977 6
4977 4978 6
4978 4979 6
4979 4980 6
4980 4981 6
4981 4982 6
4982 4983 6
4983 4984 6
4984 4985 6
4985 4986 6
4986 4987 6
4987 4988 6
4988 4989 6
4989 4990 6
4990 4991 6
4991 4992 6
4992 4993 6
4993 4994 6
4994 4995 6
4995 4996 6
4996 4997 6
4997 4998 6
4998 4999 6
4999 5000 6
5000 5001 6
5001 5002 6
5002 5003 6
5003 5004 6
5004 5005 6
5005 5006 6
5006 5007 6
5007 5008 6
5008 5009 6
5009 5010 6
5010 5011 6
5011 5012 6
5012 5013 6
5013 5014 6
5014 5015 6
5015 5016 6
5016 5017 6
5017 5018 6
5018 5019 6
5019 5020 6
5020 5021 6
5021 5022 6
5022 5023 6
5023 123 6
 28  98 7
 98 168 7
168 5068 7
5068 5138 7
5138 5208 7
5208 5278 7
5278 5348 7
5348 5418 7
5418 5488 7
5488 5558 7
5558 5628 7
5628 5698 7
5698 5768 7
5768 5838 7
5838 5908 7
5908 5978 7
5978 6048 7
6048 6118 7
6118 6188 7
6188 6258 7
6258 6328 7
6328 6398 7
6398 6468 7
6468 6538 7
6538 6608 7
6608 6678 7
6678 6748 7
6748 6818 7
6818 6888 7
6888 6958 7
6958 7028 7
7028 7098 7
7098 7168 7
7168 7238 7
7238 7308 7
7308 7378 7
7378 7448 7
7448 7518 7
7518 7588 7
7588 7658 7
7658 7728 7
7728 7798 7
7798 7868 7
7868 7938 7
7938 8008 7
8008 8078 7
8078 8148 7
8148 8218 7
8218 8288 7
8288 8358 7
8358 8428 7
8428 8498 7
8498 8568 7
8568 8638 7
8638 8708 7
8708 8778 7
8778 8848 7
8848 8918 7
8918 8988 7
8988 9058 7
9058 9128 7
9128 9198 7
9198 9268 7
9268 9338 7
9338 9408 7
9408 9478 7
9478 9548 7
9548 9618 7
9618 9688 7
9688 9758 7
4881 4882 7
4882 4883 7
4883 4884 7
4884 4885 7
4885 4886 7
4886 4887 7
4887 4888 7
4888 4889 7
4889 4890 7
4890 4891 7
4891 4892 7
9734 4834 7
9735 9734 7
9736 9735 7
9737 9736 7
9738 9737 7
9739 9738 7
9740 9739 7
9741 9740 7
9742 9741 7
9743 9742 7
9744 9743 7
9745 9744 7
9746 9745 7
9747 9746 7
9748 9747 7
9749 9748 7
9750 9749 7
9751 9750 7
9752 9751 7
9753 9752 7
9754 9753 7
9755 9754 7
9756 9755 7
9757 9756 7
9758 9757 7
9758 9759 7
9759 9760 7
9760 9761 7
9761 9762 7
9762 9763 7
9763 9764 7
9764 9765 7
9765 9766 7
9766 9767 7
9767 9768 7
9768 9769 7
9769 9770 7
9770 9771 7
9771 9772 7
9772 9773 7
9773 9774 7
9774 9775 7
9775 9776 7
9776 9777 7
9777 9778 7
9778 9779 7
9779 9780 7
9780 9781 7
9781 4881 7
 10   9 8
 11  10 8
 12  11 8
 13  12 8
 14  13 8
 15  14 8
 16  15 8
 86  16 8
156  86 8
157 156 8
5057 157 8
5058 5057 8
5059 5058 8
5060 5059 8
5130 5060 8
5131 5130 8
5201 5131 8
5202 5201 8
5272 5202 8
5273 5272 8
5274 5273 8
5344 5274 8
515 5415 8
516 515 8
517 516 8
518 517 8
5414 5344 8
5415 5414 8
588 518 8
589 588 8
590 589 8
609 5509 8
610 609 8
611 610 8
612 611 8
613 612 8
614 613 8
615 614 8
616 615 8
617 616 8
618 617 8
619 618 8
620 619 8
621 620 8
622 621 8
623 622 8
624 623 8
625 624 8
626 625 8
627 626 8
628 627 8
629 628 8
630 629 8
5490 590 8
5491 5490 8
5492 5491 8
5493 5492 8
5494 5493 8
5495 5494 8
5496 5495 8
5497 5496 8
5498 5497 8
5499 5498 8
5500 5499 8
5501 5500 8
5502 5501 8
5503 5502 8
5504 5503 8
5505 5504 8
5506 5505 8
5507 5506 8
5508 5507 8
5509 5508 8
 41  42 9
 42  43 9
 43 113 9
113 183 9
183 5083 9
5083 5084 9
5084 5154 9
5154 5155 9
5155 5225 9
327 397 9
5225 5226 9
5226 5227 9
397 398 9
5227 327 9
398 399 9
399 400 9
400 401 9
401 402 9
402 403 9
403 404 9
404 405 9
405 406 9
406 407 9
407 408 9
408 409 9
409 410 9
410 411 9
411 412 9
412 413 9
413 414 9
414 415 9
415 416 9
416 417 9
417 418 9
418 419 9
419 489 9
489 559 9
559 560 9
4805 4806 10
4806 9706 10
4812 4813 10
4813 4814 10
4814 4815 10
4815 4816 10
4816 4817 10
4817 4818 10
4818 4819 10
4819 4820 10
4820 4821 10
4821 4822 10
4822 4823 10
4823 4893 10
4863 4864 10
4864 4865 10
4865 4866 10
4866 4867 10
4867 4868 10
4868 4869 10
4869 4870 10
4870 4871 10
4871 4872 10
4872 4873 10
4873 4874 10
4874 4875 10
4875 4805 10
9706 9707 10
9707 9708 10
9708 9709 10
9709 9710 10
9710 9711 10
9711 9712 10
9712 4812 10
4893 4894 10
4894 4895 10
4895 4896 10
4896 4897 10
4897 4898 10
4898 4899 10
4899 4900 10
4299 4369 11
4321 9221 11
4322 4321 11
4323 4322 11
4324 4323 11
4325 4324 11
4326 4325 11
4327 4326 11
4328 4327 11
4329 4328 11
4330 4329 11
4331 4330 11
4332 4331 11
4333 4332 11
4334 4333 11
4335 4334 11
4336 4335 11
4337 4336 11
4338 4337 11
4339 4338 11
4340 4339 11
4369 4439 11
9199 4299 11
9200 9199 11
9201 9200 11
9202 9201 11
9203 9202 11
9204 9203 11
9205 9204 11
9206 9205 11
9207 9206 11
9208 9207 11
9209 9208 11
9210 9209 11
9211 9210 11
9212 9211 11
9213 9212 11
9214 9213 11
9215 9214 11
9216 9215 11
9217 9216 11
9218 9217 11
9219 9218 11
9220 9219 11
9221 9220 11
4439 4509 11
4506 9406 11
4507 4506 11
4508 4507 11
4509 4508 11
9406 9476 11
9476 9546 11
9546 9616 11
4774 4844 11
4775 4774 11
9616 9686 11
4841 4840 11
4842 4841 11
4843 4842 11
4844 4843 11
9675 4775 11
9676 9675 11
9677 9676 11
9678 9677 11
9679 9678 11
9680 9679 11
9681 9680 11
9682 9681 11
9683 9682 11
9684 9683 11
9685 9684 11
9686 9685 11
 19  20 12
 20  21 12
 21  22 12
 22  23 12
 23  93 12
 93  94 12
 94 164 12
116  46 12
164 165 12
165 166 12
166 167 12
167 237 12
186 116 12
237 238 12
238 239 12
239 240 12
240 241 12
241 242 12
242 243 12
243 244 12
244 314 12
256 186 12
314 315 12
315 385 12
326 256 12
385 386 12
386 387 12
387 5287 12
396 326 12
5287 5288 12
5288 5289 12
5289 5290 12
5290 5291 12
5291 5292 12
5292 5293 12
5293 5294 12
5294 5295 12
5295 5296 12
5296 396 12
